(set-logic ALL)
(set-option :produce-models true)
(declare-sort BoundSet 0)
(declare-sort UnboundSet 0)
(set-option :finite-model-find true)
(declare-fun IsPainting (BoundSet BoundSet) Bool)
(declare-fun IsRound (BoundSet) Bool)
(declare-fun IsStandUp (BoundSet) Bool)
(declare-fun IsWriting (BoundSet BoundSet) Bool)
(declare-fun IsShowing (BoundSet BoundSet) Bool)
(assert (not (=> (exists ((c BoundSet)) (exists ((a BoundSet)) (exists ((b BoundSet)) (and (IsPainting a b) (and (IsRound c) (IsStandUp c)))))) (exists ((f BoundSet)) (exists ((e BoundSet)) (exists ((d BoundSet)) (and (IsWriting d e) (IsShowing d f))))))))
(check-sat)
(get-model)